c parsing input formula with 64 variables and 65 clauses
c WARNING: backward mode ignores deletion of (pseudo) unit clause [-1879045011] -64 0
c finished parsing
c UNSAT via unit propagation on the input instance
c 65 of 65 clauses in core                            
c 1 of 65 lemmas in core using 65 resolution steps
c 0 RAT lemmas in core; 0 redundant literals in core lemmas
s VERIFIED
c verification time: 0.071 seconds
